20J6M/DAT/20J6MNNL-13.dat
20 6
23.359 23.359
24.1028 24.1028
16.7177 16.7177
18.3342 18.3342
21.6549 21.6549
27.4683 27.4683
26.0616 26.0616
19.6751 19.6751
31.047 31.047
22.5458 22.5458
24.3807 24.3807
26.478 26.478
28.0001 28.0001
33.3618 33.3618
32.9324 32.9324
24.813 24.813
25.4132 25.4132
28.7288 28.7288
21.4465 21.4465
16.4114 16.4114
492.9323