20J6M/SOL/20J6MNNL-13.sol
solution status: optimal solution found
objective value:                     82.1553833333333
x#1#1                                               1 	(obj:0)
x#2#5                                               1 	(obj:0)
x#3#5                                               1 	(obj:0)
x#4#4                                               1 	(obj:0)
x#5#4                                               1 	(obj:0)
x#6#2                                0.45912621700894 	(obj:0)
x#6#5                                0.54087378299106 	(obj:0)
x#7#2                                               1 	(obj:0)
x#8#3                                               1 	(obj:0)
x#9#3                               0.489123479455878 	(obj:0)
x#9#6                               0.510876520544122 	(obj:0)
x#10#1                              0.808905280214792 	(obj:0)
x#10#4                              0.191094719785208 	(obj:0)
x#11#1                                              1 	(obj:0)
x#12#5                                              1 	(obj:0)
x#13#2                              0.336942844251746 	(obj:0)
x#13#3                              0.663057155748254 	(obj:0)
x#14#6                                              1 	(obj:0)
x#15#6                                              1 	(obj:0)
x#16#1                              0.652007684144065 	(obj:0)
x#16#2                              0.347992315855935 	(obj:0)
x#17#2                                              1 	(obj:0)
x#18#3                                              1 	(obj:0)
x#19#4                                              1 	(obj:0)
x#20#4                                              1 	(obj:0)
z                                    82.1553833333333 	(obj:1)
